100
1000
200
199
199
198
198
197
197
197
197
197
196
196
196
195
194
194
192
192
192
191
190
189
189
189
188
188
187
186
186
185
185
185
184
183
183
183
182
181
180
180
179
179
179
178
178
178
177
177
176
175
174
174
172
172
171
171
170
170
170
169
169
168
168
168
165
164
163
162
162
162
161
161
161
161
160
160
160
157
157
157
157
156
156
156
156
155
155
155
155
155
154
154
153
153
152
151
151
151
150
150
